p cnf 14 64
-10 -13 -14 0
4 6 8 0
5 10 -13 0
-5 -7 -13 0
3 -5 9 0
-5 -11 12 0
3 4 -9 0
2 6 9 0
-6 13 -14 0
3 -11 12 0
-2 -6 12 0
-1 9 11 0
-2 4 -14 0
-3 5 13 0
-3 -4 -9 0
6 9 -10 0
6 -8 -10 0
-1 -7 -11 0
-1 -12 -14 0
6 -8 10 0
-2 4 9 0
2 7 11 0
-1 3 10 0
-8 10 12 0
-7 -9 13 0
-2 5 8 0
-3 -12 -14 0
4 -12 14 0
9 10 -11 0
6 8 13 0
1 -9 12 0
-11 13 -14 0
4 -6 9 0
-10 -11 -12 0
4 9 -12 0
5 -10 11 0
5 -10 -14 0
-1 -10 -13 0
6 9 13 0
-2 -3 -12 0
1 3 -10 0
3 -8 14 0
6 7 -13 0
8 11 -12 0
-1 -2 5 0
3 -5 -14 0
-7 -8 10 0
1 3 7 0
4 5 8 0
-5 8 -13 0
-1 -6 -8 0
8 13 14 0
-6 8 10 0
-1 -3 -14 0
1 2 -14 0
-3 4 -8 0
-4 -9 -10 0
-8 -13 14 0
-6 -13 -14 0
1 4 13 0
-8 12 14 0
4 9 -10 0
1 4 -10 0
2 6 12 0
